c FILE /home/rafael/Documents/HappySet/MIHS/inputs/happygen/output/graph_scale_free_k3_p0.2_v50_20241127_082410.txt
c SOURCE This is a scale-free graph formed for the happy graph colouring problem.
c DESCRIPTION It was generated using the problem generator of Rhyd Lewis
c
c GRAPH STATS
c Seed                             = -1299973583
c Number of Nodes                  = 50
c Number of colours k              = 3
c Number of pre-assignments        = 10
c Number of links per new node     = 5
c Density                          = 0.191837
c 
c The degrees of nodes 1 to 50, respectively, are as follows 
c [22, 22, 21, 18, 17, 17, 17, 16, 16, 15, 14, 12, 11, 11, 11, 10, 9, 9, 9, 8, 8, 8, 8, 8, 8, 7, 
c  7, 7, 7, 7, 7, 6, 6, 6, 6, 6, 6, 6, 6, 5, 5, 5, 5, 5, 5, 5, 5, 5, 5, 5] 
c  
p edge 50 235 3
e 1 2
e 1 3
e 1 4
e 1 5
e 1 8
e 1 10
e 1 11
e 1 12
e 1 13
e 1 16
e 1 18
e 1 19
e 1 20
e 1 21
e 1 23
e 1 24
e 1 29
e 1 31
e 1 43
e 1 46
e 1 47
e 1 48
e 2 3
e 2 5
e 2 6
e 2 8
e 2 9
e 2 10
e 2 14
e 2 15
e 2 16
e 2 18
e 2 19
e 2 20
e 2 24
e 2 26
e 2 27
e 2 32
e 2 37
e 2 40
e 2 43
e 2 45
e 2 50
e 3 4
e 3 5
e 3 6
e 3 8
e 3 9
e 3 10
e 3 11
e 3 12
e 3 17
e 3 20
e 3 30
e 3 31
e 3 33
e 3 36
e 3 41
e 3 44
e 3 47
e 3 48
e 3 49
e 4 5
e 4 7
e 4 8
e 4 10
e 4 11
e 4 12
e 4 13
e 4 20
e 4 21
e 4 27
e 4 28
e 4 30
e 4 32
e 4 33
e 4 43
e 4 47
e 5 6
e 5 8
e 5 10
e 5 11
e 5 12
e 5 14
e 5 16
e 5 19
e 5 21
e 5 24
e 5 37
e 5 38
e 5 42
e 6 9
e 6 10
e 6 13
e 6 14
e 6 15
e 6 17
e 6 20
e 6 23
e 6 26
e 6 29
e 6 32
e 6 38
e 6 49
e 6 50
e 7 10
e 7 11
e 7 12
e 7 13
e 7 22
e 7 23
e 7 25
e 7 27
e 7 30
e 7 31
e 7 32
e 7 34
e 7 35
e 7 44
e 7 45
e 7 47
e 8 10
e 8 12
e 8 13
e 8 14
e 8 17
e 8 20
e 8 22
e 8 23
e 8 26
e 8 35
e 8 43
e 9 10
e 9 11
e 9 12
e 9 21
e 9 23
e 9 24
e 9 27
e 9 28
e 9 29
e 9 32
e 9 37
e 9 38
e 9 49
e 10 13
e 10 16
e 10 26
e 10 27
e 10 34
e 10 41
e 11 14
e 11 15
e 11 17
e 11 18
e 11 22
e 11 28
e 11 35
e 11 39
e 12 18
e 12 26
e 12 33
e 12 40
e 12 42
e 13 17
e 13 22
e 13 28
e 13 41
e 13 42
e 14 15
e 14 22
e 14 25
e 14 31
e 14 40
e 14 49
e 15 16
e 15 18
e 15 25
e 15 34
e 15 37
e 15 38
e 15 39
e 16 26
e 16 28
e 16 35
e 16 41
e 16 48
e 17 21
e 17 29
e 17 33
e 17 41
e 18 24
e 18 30
e 18 35
e 18 40
e 19 20
e 19 23
e 19 25
e 19 36
e 19 37
e 19 45
e 20 30
e 21 25
e 21 29
e 21 44
e 22 33
e 22 34
e 22 40
e 23 44
e 23 45
e 24 38
e 24 44
e 24 46
e 25 34
e 25 36
e 25 46
e 26 31
e 27 39
e 27 42
e 28 36
e 28 42
e 29 46
e 29 50
e 30 36
e 30 45
e 31 46
e 31 48
e 32 39
e 33 43
e 34 50
e 35 47
e 36 39
e 37 48
e 38 50
e 39 49
n 4 1
n 5 1
n 6 1
n 20 1
n 24 1
n 25 2
n 40 3
n 42 1
n 48 3
n 50 1
